14 6
480 370 276 117 89 193 47 696 664 255 229 57 183 829
0 671 440 875 301 798 390 35 234 972 288 151 731 300 462
534 0 933 424 279 991 700 536 355 753 958 536 453 54 621
363 434 0 794 847 644 330 26 132 787 858 271 323 428 180
953 864 579 0 124 232 630 372 135 14 29 463 138 753 976
696 916 268 303 0 460 993 221 972 96 893 793 611 708 449
860 130 533 820 565 0 19 136 849 997 947 401 761 24 560
435 693 212 435 715 99 0 958 607 189 354 525 838 488 11
214 183 405 350 262 917 234 0 598 894 935 934 274 840 647
181 281 600 418 178 457 278 235 0 884 636 544 588 841 944
605 378 200 402 996 611 179 190 290 0 431 225 245 586 120
633 731 766 112 250 739 892 758 120 554 0 925 140 872 581
727 943 829 912 425 204 243 549 670 596 273 0 252 931 844
588 797 67 715 942 359 979 88 373 964 335 984 0 183 323
674 17 515 345 117 142 67 830 383 304 415 960 450 0 37
483 62 846 279 768 154 927 947 359 979 218 429 817 846 0